NAME : rc203.2.6174650.tour
COMMENT : Length = 6174650
COMMENT : Found by LKH [Keld Helsgaun] Tue May  2 05:20:28 2017
TYPE : TOUR
DIMENSION : 29
TOUR_SECTION
1
14
4
3
2
12
11
10
13
19
20
27
26
24
23
17
28
16
25
5
6
7
8
9
15
22
18
29
21
-1
EOF
